;; ===================== Declarations for the criterion (REQ 0) =====================
(declare-const patient_has_finding_of_blood_culture_positive_for_microorganism_now Bool) ;; "positive blood culture" {"when_to_set_to_true":"Set to true if the patient currently has a blood culture positive for a microorganism.","when_to_set_to_false":"Set to false if the patient currently does not have a blood culture positive for a microorganism.","when_to_set_to_null":"Set to null if it is unknown, not documented, or cannot be determined whether the patient currently has a blood culture positive for a microorganism.","meaning":"Boolean indicating whether the patient currently has a blood culture positive for a microorganism."}
(declare-const patient_has_finding_of_urine_culture_positive_for_microorganism_now Bool) ;; "positive urine culture" {"when_to_set_to_true":"Set to true if the patient currently has a urine culture positive for a microorganism.","when_to_set_to_false":"Set to false if the patient currently does not have a urine culture positive for a microorganism.","when_to_set_to_null":"Set to null if it is unknown, not documented, or cannot be determined whether the patient currently has a urine culture positive for a microorganism.","meaning":"Boolean indicating whether the patient currently has a urine culture positive for a microorganism."}
(declare-const patient_has_finding_of_synovial_fluid_culture_positive_for_microorganism_now Bool) ;; "positive synovial fluid culture" {"when_to_set_to_true":"Set to true if the patient currently has a synovial fluid culture positive for a microorganism.","when_to_set_to_false":"Set to false if the patient currently does not have a synovial fluid culture positive for a microorganism.","when_to_set_to_null":"Set to null if it is unknown, not documented, or cannot be determined whether the patient currently has a synovial fluid culture positive for a microorganism.","meaning":"Boolean indicating whether the patient currently has a synovial fluid culture positive for a microorganism."}
(declare-const patient_has_finding_of_bone_culture_positive_for_microorganism_now Bool) ;; "positive bone culture" {"when_to_set_to_true":"Set to true if the patient currently has a bone culture positive for a microorganism.","when_to_set_to_false":"Set to false if the patient currently does not have a bone culture positive for a microorganism.","when_to_set_to_null":"Set to null if it is unknown, not documented, or cannot be determined whether the patient currently has a bone culture positive for a microorganism.","meaning":"Boolean indicating whether the patient currently has a bone culture positive for a microorganism."}
(declare-const patient_has_finding_of_pleural_effusion_culture_positive_for_microorganism_now Bool) ;; "positive pleural effusion culture" {"when_to_set_to_true":"Set to true if the patient currently has a pleural effusion culture positive for a microorganism.","when_to_set_to_false":"Set to false if the patient currently does not have a pleural effusion culture positive for a microorganism.","when_to_set_to_null":"Set to null if it is unknown, not documented, or cannot be determined whether the patient currently has a pleural effusion culture positive for a microorganism.","meaning":"Boolean indicating whether the patient currently has a pleural effusion culture positive for a microorganism."}
(declare-const patient_has_finding_of_abscess_culture_positive_for_microorganism_now Bool) ;; "positive abscess culture" {"when_to_set_to_true":"Set to true if the patient currently has an abscess culture positive for a microorganism.","when_to_set_to_false":"Set to false if the patient currently does not have an abscess culture positive for a microorganism.","when_to_set_to_null":"Set to null if it is unknown, not documented, or cannot be determined whether the patient currently has an abscess culture positive for a microorganism.","meaning":"Boolean indicating whether the patient currently has an abscess culture positive for a microorganism."}
(declare-const patient_has_finding_of_microbiologic_culture_of_cerebrospinal_fluid_specimen_positive_now Bool) ;; "positive cerebrospinal fluid culture" {"when_to_set_to_true":"Set to true if the patient currently has a cerebrospinal fluid culture positive for a microorganism.","when_to_set_to_false":"Set to false if the patient currently does not have a cerebrospinal fluid culture positive for a microorganism.","when_to_set_to_null":"Set to null if it is unknown, not documented, or cannot be determined whether the patient currently has a cerebrospinal fluid culture positive for a microorganism.","meaning":"Boolean indicating whether the patient currently has a cerebrospinal fluid culture positive for a microorganism."}

;; ===================== Constraint Assertions (REQ 0) =====================
;; Component 0: To be included, the patient must have (a positive blood culture OR a positive urine culture OR a positive synovial fluid culture OR a positive bone culture OR a positive pleural effusion culture OR a positive abscess culture OR a positive cerebrospinal fluid culture).
(assert
  (! (or patient_has_finding_of_blood_culture_positive_for_microorganism_now
         patient_has_finding_of_urine_culture_positive_for_microorganism_now
         patient_has_finding_of_synovial_fluid_culture_positive_for_microorganism_now
         patient_has_finding_of_bone_culture_positive_for_microorganism_now
         patient_has_finding_of_pleural_effusion_culture_positive_for_microorganism_now
         patient_has_finding_of_abscess_culture_positive_for_microorganism_now
         patient_has_finding_of_microbiologic_culture_of_cerebrospinal_fluid_specimen_positive_now)
     :named REQ0_COMPONENT0_OTHER_REQUIREMENTS)) ;; "To be included, the patient must have (a positive blood culture OR a positive urine culture OR a positive synovial fluid culture OR a positive bone culture OR a positive pleural effusion culture OR a positive abscess culture OR a positive cerebrospinal fluid culture)."

;; ===================== Declarations for the criterion (REQ 1) =====================
(declare-const patient_has_diagnosis_of_cellulitis_now Bool) ;; "cellulitis" {"when_to_set_to_true":"Set to true if the patient currently has a diagnosis of cellulitis.","when_to_set_to_false":"Set to false if the patient currently does not have a diagnosis of cellulitis.","when_to_set_to_null":"Set to null if it is unknown, not documented, or cannot be determined whether the patient currently has a diagnosis of cellulitis.","meaning":"Boolean indicating whether the patient currently has a diagnosis of cellulitis."}
(declare-const patient_has_diagnosis_of_lobar_pneumonia_now Bool) ;; "lobar pneumonia" {"when_to_set_to_true":"Set to true if the patient currently has a diagnosis of lobar pneumonia.","when_to_set_to_false":"Set to false if the patient currently does not have a diagnosis of lobar pneumonia.","when_to_set_to_null":"Set to null if it is unknown, not documented, or cannot be determined whether the patient currently has a diagnosis of lobar pneumonia.","meaning":"Boolean indicating whether the patient currently has a diagnosis of lobar pneumonia."}
(declare-const patient_has_diagnosis_of_osteomyelitis_now Bool) ;; "osteomyelitis" {"when_to_set_to_true":"Set to true if the patient currently has a diagnosis of osteomyelitis.","when_to_set_to_false":"Set to false if the patient currently does not have a diagnosis of osteomyelitis.","when_to_set_to_null":"Set to null if it is unknown, not documented, or cannot be determined whether the patient currently has a diagnosis of osteomyelitis.","meaning":"Boolean indicating whether the patient currently has a diagnosis of osteomyelitis."}

;; ===================== Constraint Assertions (REQ 1) =====================
;; Component 0: To be included, the patient must have (cellulitis OR lobar pneumonia OR osteomyelitis).
(assert
  (! (or patient_has_diagnosis_of_cellulitis_now
         patient_has_diagnosis_of_lobar_pneumonia_now
         patient_has_diagnosis_of_osteomyelitis_now)
     :named REQ1_COMPONENT0_PRESCREEN_NOTES_MUST_COMPLETELY_SUFFICE)) ;; "To be included, the patient must have (cellulitis OR lobar pneumonia OR osteomyelitis)."
